(declare-fun ExpandObjSwitcher () Real)
(declare-fun CreateAsClass () Bool)
(declare-fun ExpandObjSwitcher_2 () Real)
(declare-fun Constructed_Argument_t () String)
(declare-fun CreateAsClass_2 () Bool)
(declare-fun CreateAsClass_3 () Bool)
(assert (= ExpandObjSwitcher 1.0))
(assert CreateAsClass)
(assert (= ExpandObjSwitcher_2 2.0))
(assert (= Constructed_Argument_t "number"))
(assert (not CreateAsClass_2))
(assert CreateAsClass_3)
(check-sat)
